10J3M/DAT/10J3MNNL-7.dat
10 3
23.5837 23.5837
24.7973 24.7973
28.4951 28.4951
25.228 25.228
17.3769 17.3769
20.4424 20.4424
17.567 17.567
31.6474 31.6474
25.1517 25.1517
18.2435 18.2435
232.533