10J3M/SOL/10J3MNNL-7.sol
solution status: optimal solution found
objective value:                               77.511
x#1#1                               0.164571292884493 	(obj:0)
x#1#2                               0.835428707115508 	(obj:0)
x#2#2                                               1 	(obj:0)
x#3#3                                               1 	(obj:0)
x#4#2                               0.311538766449976 	(obj:0)
x#4#3                               0.688461233550024 	(obj:0)
x#5#1                                               1 	(obj:0)
x#6#1                                               1 	(obj:0)
x#7#1                                               1 	(obj:0)
x#8#3                                               1 	(obj:0)
x#9#2                                               1 	(obj:0)
x#10#1                                              1 	(obj:0)
z                                              77.511 	(obj:1)
